30
3	5	6	8	9	10	11	13	15	16	19	21	22	23	25	27	28	30	0
3	5	7	8	9	10	13	14	15	18	19	20	22	24	27	28	30	0
1	2	5	7	8	10	14	16	17	18	20	23	24	25	26	0
5	9	10	13	14	17	18	24	25	27	29	0
1	2	3	4	7	11	12	13	15	16	18	19	20	22	23	24	25	30	0
1	8	15	17	19	20	21	28	0
2	3	5	8	11	12	13	14	16	17	18	21	22	23	24	26	27	28	29	0
1	2	3	6	7	9	11	12	14	15	16	18	21	22	24	25	27	28	0
1	2	4	8	10	14	16	20	23	24	25	26	27	30	0
1	2	3	4	9	11	13	14	15	16	17	21	27	29	0
1	5	7	8	10	12	13	15	16	17	18	24	25	27	0
5	7	8	11	14	16	17	20	23	24	27	30	0
1	2	4	5	7	10	11	14	15	16	20	22	25	28	30	0
2	3	4	7	8	9	10	12	13	15	17	23	25	26	0
1	2	5	6	8	10	11	13	14	16	18	19	20	21	27	28	30	0
1	3	5	7	8	9	10	11	12	13	15	17	20	22	23	24	26	27	29	0
3	4	6	7	10	11	12	14	16	22	23	24	25	26	27	28	0
2	3	4	5	7	8	11	15	21	22	25	28	0
1	2	5	6	15	23	24	29	0
2	3	5	6	9	12	13	15	16	21	22	23	27	28	29	0
1	6	7	8	10	15	18	20	22	25	26	28	29	0
1	2	5	7	8	13	16	17	18	20	21	23	24	25	27	30	0
1	3	5	7	9	12	14	16	17	19	20	22	24	29	0
2	3	4	5	7	8	9	11	12	16	17	19	22	23	28	29	0
1	3	4	5	8	9	11	13	14	17	18	21	22	26	27	30	0
3	7	9	14	16	17	21	25	29	0
1	2	4	7	8	9	10	11	12	15	16	17	20	22	25	29	0
1	2	6	7	8	13	15	17	18	20	21	24	30	0
4	7	10	16	19	20	21	23	24	26	27	30	0
1	2	5	9	12	13	15	22	25	28	29	0


comments:
random graph
nodes 30
edges 215
rng seed 825 
